0
Node Left Objective IInf Best_Integer Best_Bound ItCnt Gap
0 0 0.0000 6 0.0000 77
0 0 0.0000 5 Cuts:24 89
0 0 0.0000 5 Cuts:6 97
0 0 0.0000 4 Cuts:8 106
0 2 0.0000 4 0.0000 106 0 0
CPXPARAM_MIP_Cuts_Disjunctive-LiftProj-MIRCut:Disjunctive 1
CPXPARAM_MIP_Cuts_Disjunctive-LiftProj-MIRCut:LiftProj 2
CPXPARAM_MIP_Cuts_Disjunctive-LiftProj-MIRCut:MIRCut 1
1
Node Left Objective IInf Best_Integer Best_Bound ItCnt Gap
0 0 0.0000 4 0.0000 57
0 0 0.0000 3 Disjcuts:3 63
0 2 0.0000 4 0.0000 63 0 0
CPXPARAM_MIP_Cuts_Disjunctive-LiftProj-MIRCut:Disjunctive 0
CPXPARAM_MIP_Cuts_Disjunctive-LiftProj-MIRCut:LiftProj 0
CPXPARAM_MIP_Cuts_Disjunctive-LiftProj-MIRCut:MIRCut 2
2
Node Left Objective IInf Best_Integer Best_Bound ItCnt Gap
0 0 0.0000 6 0.0000 57
0 0 0.0000 6 Cuts:6 68
0 0 0.0000 5 Cuts:9 81
0 2 0.0000 5 0.0000 81 0 0
CPXPARAM_MIP_Cuts_Disjunctive-LiftProj-MIRCut:Disjunctive 1
CPXPARAM_MIP_Cuts_Disjunctive-LiftProj-MIRCut:LiftProj 1
CPXPARAM_MIP_Cuts_Disjunctive-LiftProj-MIRCut:MIRCut 1
3
Node Left Objective IInf Best_Integer Best_Bound ItCnt Gap
0 0 0 0.0000 0.0000 19 0.00% 0
CPXPARAM_MIP_Cuts_Disjunctive-LiftProj-MIRCut:Disjunctive 0
CPXPARAM_MIP_Cuts_Disjunctive-LiftProj-MIRCut:LiftProj 0
CPXPARAM_MIP_Cuts_Disjunctive-LiftProj-MIRCut:MIRCut 0
4
Node Left Objective IInf Best_Integer Best_Bound ItCnt Gap
0 0 0.0000 7 0.0000 62
0 0 0.0000 7 Cuts:25 74
0 0 0.0000 4 Cuts:11 83
0 0 0.0000 6 Cuts:11 91
0 2 0.0000 6 0.0000 91 0 0
CPXPARAM_MIP_Cuts_Disjunctive-LiftProj-MIRCut:Disjunctive 0
CPXPARAM_MIP_Cuts_Disjunctive-LiftProj-MIRCut:LiftProj 2
CPXPARAM_MIP_Cuts_Disjunctive-LiftProj-MIRCut:MIRCut 1
5
Node Left Objective IInf Best_Integer Best_Bound ItCnt Gap
0 0 0.0000 3 0.0000 48
0 0 0.0000 2 Disjcuts:2 88
0 0 0.0000 3 Cuts:2 93
0 2 0.0000 3 0.0000 93 0 0
CPXPARAM_MIP_Cuts_Disjunctive-LiftProj-MIRCut:Disjunctive 1
CPXPARAM_MIP_Cuts_Disjunctive-LiftProj-MIRCut:LiftProj 0
CPXPARAM_MIP_Cuts_Disjunctive-LiftProj-MIRCut:MIRCut 1
6
Node Left Objective IInf Best_Integer Best_Bound ItCnt Gap
0 0 0.0000 5 0.0000 26
0 0 0.0000 4 Cuts:15 56
0 0 0.0000 4 Cuts:9 65
0 0 0.0000 4 Cuts:18 68
0 2 0.0000 4 0.0000 68 0 0
CPXPARAM_MIP_Cuts_Disjunctive-LiftProj-MIRCut:Disjunctive 1
CPXPARAM_MIP_Cuts_Disjunctive-LiftProj-MIRCut:LiftProj 0
CPXPARAM_MIP_Cuts_Disjunctive-LiftProj-MIRCut:MIRCut 2
7
Node Left Objective IInf Best_Integer Best_Bound ItCnt Gap
0 0 0 0.0000 0.0000 28 0.00% 0
CPXPARAM_MIP_Cuts_Disjunctive-LiftProj-MIRCut:Disjunctive 0
CPXPARAM_MIP_Cuts_Disjunctive-LiftProj-MIRCut:LiftProj 0
CPXPARAM_MIP_Cuts_Disjunctive-LiftProj-MIRCut:MIRCut 0
8
Node Left Objective IInf Best_Integer Best_Bound ItCnt Gap
0 0 0.0000 8 0.0000 65
0 0 0.0000 6 Cuts:20 76
0 0 0.0000 7 Cuts:14 86
0 0 0.0000 4 Cuts:13 96
0 0 0.0000 4 Cuts:7 104
0 2 0.0000 4 0.0000 104 0 0
CPXPARAM_MIP_Cuts_Disjunctive-LiftProj-MIRCut:Disjunctive 0
CPXPARAM_MIP_Cuts_Disjunctive-LiftProj-MIRCut:LiftProj 1
CPXPARAM_MIP_Cuts_Disjunctive-LiftProj-MIRCut:MIRCut 1
9
Node Left Objective IInf Best_Integer Best_Bound ItCnt Gap
0 0 0.0000 4 0.0000 55
0 0 0.0000 4 Disjcuts:3 100
0 0 0.0000 2 Cuts:6 111
0 0 0.0000 3 MIRcuts:1 113
0 2 0.0000 4 0.0000 113 0 0
CPXPARAM_MIP_Cuts_Disjunctive-LiftProj-MIRCut:Disjunctive 1
CPXPARAM_MIP_Cuts_Disjunctive-LiftProj-MIRCut:LiftProj 0
CPXPARAM_MIP_Cuts_Disjunctive-LiftProj-MIRCut:MIRCut 1
10
Node Left Objective IInf Best_Integer Best_Bound ItCnt Gap
0 0 0.0000 5 0.0000 71
0 0 0.0000 4 Cuts:25 79
0 0 0.0000 4 Cuts:9 84
0 0 0.0000 4 Cuts:6 94
0 2 0.0000 4 0.0000 94 0 0
CPXPARAM_MIP_Cuts_Disjunctive-LiftProj-MIRCut:Disjunctive 0
CPXPARAM_MIP_Cuts_Disjunctive-LiftProj-MIRCut:LiftProj 4
CPXPARAM_MIP_Cuts_Disjunctive-LiftProj-MIRCut:MIRCut 0
11
Node Left Objective IInf Best_Integer Best_Bound ItCnt Gap
0 0 0.0000 2 0.0000 41
0 0 0.0000 2 Disjcuts:1 57
0 0 0 0.0000 Cuts:20 60 0.00%
0 0 cutoff 0.0000 0.0000 60 0.00% 0
CPXPARAM_MIP_Cuts_Disjunctive-LiftProj-MIRCut:Disjunctive 7
CPXPARAM_MIP_Cuts_Disjunctive-LiftProj-MIRCut:LiftProj 1
CPXPARAM_MIP_Cuts_Disjunctive-LiftProj-MIRCut:MIRCut 1
12
Node Left Objective IInf Best_Integer Best_Bound ItCnt Gap
0 0 0.0000 4 0.0000 55
0 0 0.0000 4 Cuts:12 63
0 0 0.0000 5 Cuts:12 72
0 2 0.0000 5 0.0000 72 0 0
CPXPARAM_MIP_Cuts_Disjunctive-LiftProj-MIRCut:Disjunctive 3
CPXPARAM_MIP_Cuts_Disjunctive-LiftProj-MIRCut:LiftProj 0
CPXPARAM_MIP_Cuts_Disjunctive-LiftProj-MIRCut:MIRCut 2
13
Node Left Objective IInf Best_Integer Best_Bound ItCnt Gap
0 0 0.0000 6 0.0000 57
0 0 0.0000 5 Disjcuts:4 99
0 0 0.0000 3 Cuts:7 111
0 0 0.0000 3 Cuts:4 116
0 0 0.0000 5 Disjcuts:3 120
0 2 0.0000 6 0.0000 120 0 0
CPXPARAM_MIP_Cuts_Disjunctive-LiftProj-MIRCut:Disjunctive 1
CPXPARAM_MIP_Cuts_Disjunctive-LiftProj-MIRCut:LiftProj 0
CPXPARAM_MIP_Cuts_Disjunctive-LiftProj-MIRCut:MIRCut 4
14
Node Left Objective IInf Best_Integer Best_Bound ItCnt Gap
0 0 0.0000 2 0.0000 30
0 0 0.0000 2 Cuts:25 78
0 2 0.0000 2 0.0000 78 0 0
CPXPARAM_MIP_Cuts_Disjunctive-LiftProj-MIRCut:Disjunctive 2
CPXPARAM_MIP_Cuts_Disjunctive-LiftProj-MIRCut:LiftProj 0
CPXPARAM_MIP_Cuts_Disjunctive-LiftProj-MIRCut:MIRCut 0
15
Node Left Objective IInf Best_Integer Best_Bound ItCnt Gap
0 0 0.0000 1 0.0000 35
0 0 0.0000 2 Cuts:7 77
0 2 0.0000 2 0.0000 77 0 0
CPXPARAM_MIP_Cuts_Disjunctive-LiftProj-MIRCut:Disjunctive 1
CPXPARAM_MIP_Cuts_Disjunctive-LiftProj-MIRCut:LiftProj 0
CPXPARAM_MIP_Cuts_Disjunctive-LiftProj-MIRCut:MIRCut 1
16
Node Left Objective IInf Best_Integer Best_Bound ItCnt Gap
0 0 0.0000 5 0.0000 63
0 0 0.0000 4 Cuts:17 67
0 0 0.0000 3 Cuts:6 72
0 0 0.0000 3 Cuts:3 78
0 2 0.0000 3 0.0000 78 0 0
CPXPARAM_MIP_Cuts_Disjunctive-LiftProj-MIRCut:Disjunctive 1
CPXPARAM_MIP_Cuts_Disjunctive-LiftProj-MIRCut:LiftProj 1
CPXPARAM_MIP_Cuts_Disjunctive-LiftProj-MIRCut:MIRCut 2
17
Node Left Objective IInf Best_Integer Best_Bound ItCnt Gap
0 0 0.0000 4 0.0000 48
0 0 0.0000 2 Disjcuts:3 52
0 0 0.0000 2 Disjcuts:1 54
0 2 0.0000 2 0.0000 54 0 0
CPXPARAM_MIP_Cuts_Disjunctive-LiftProj-MIRCut:Disjunctive 0
CPXPARAM_MIP_Cuts_Disjunctive-LiftProj-MIRCut:LiftProj 0
CPXPARAM_MIP_Cuts_Disjunctive-LiftProj-MIRCut:MIRCut 1
18
Node Left Objective IInf Best_Integer Best_Bound ItCnt Gap
0 0 0.0000 4 0.0000 28
0 0 0.0000 6 Disjcuts:2 95
0 0 0.0000 5 Cuts:27 107
0 2 0.0000 6 0.0000 107 0 0
CPXPARAM_MIP_Cuts_Disjunctive-LiftProj-MIRCut:Disjunctive 1
CPXPARAM_MIP_Cuts_Disjunctive-LiftProj-MIRCut:LiftProj 1
CPXPARAM_MIP_Cuts_Disjunctive-LiftProj-MIRCut:MIRCut 1
19
Node Left Objective IInf Best_Integer Best_Bound ItCnt Gap
0 0 0 0.0000 0.0000 40 0.00% 0
CPXPARAM_MIP_Cuts_Disjunctive-LiftProj-MIRCut:Disjunctive 0
CPXPARAM_MIP_Cuts_Disjunctive-LiftProj-MIRCut:LiftProj 0
CPXPARAM_MIP_Cuts_Disjunctive-LiftProj-MIRCut:MIRCut 0
20
Node Left Objective IInf Best_Integer Best_Bound ItCnt Gap
0 0 0.0000 6 0.0000 54
0 0 0.0000 6 Cuts:23 130
0 0 0.0000 6 Cuts:32 142
0 2 0.0000 6 0.0000 142 0 0
CPXPARAM_MIP_Cuts_Disjunctive-LiftProj-MIRCut:Disjunctive 1
CPXPARAM_MIP_Cuts_Disjunctive-LiftProj-MIRCut:LiftProj 1
CPXPARAM_MIP_Cuts_Disjunctive-LiftProj-MIRCut:MIRCut 2
21
Node Left Objective IInf Best_Integer Best_Bound ItCnt Gap
0 0 0.0000 3 0.0000 52
0 0 0.0000 4 Disjcuts:2 92
0 0 0.0000 3 Cuts:5 95
0 2 0.0000 3 0.0000 95 0 0
CPXPARAM_MIP_Cuts_Disjunctive-LiftProj-MIRCut:Disjunctive 0
CPXPARAM_MIP_Cuts_Disjunctive-LiftProj-MIRCut:LiftProj 0
CPXPARAM_MIP_Cuts_Disjunctive-LiftProj-MIRCut:MIRCut 2
22
Node Left Objective IInf Best_Integer Best_Bound ItCnt Gap
0 0 0.0000 3 0.0000 18
0 0 0 0.0000 Disjcuts:1 45 0.00%
0 0 cutoff 0.0000 0.0000 45 0.00% 0
CPXPARAM_MIP_Cuts_Disjunctive-LiftProj-MIRCut:Disjunctive 0
CPXPARAM_MIP_Cuts_Disjunctive-LiftProj-MIRCut:LiftProj 0
CPXPARAM_MIP_Cuts_Disjunctive-LiftProj-MIRCut:MIRCut 0
23
Node Left Objective IInf Best_Integer Best_Bound ItCnt Gap
0 0 0.0000 4 0.0000 23
0 0 0.0000 3 Cuts:34 52
0 0 0.0000 4 Cuts:15 58
0 0 0.0000 5 Cuts:20 68
0 2 0.0000 5 0.0000 68 0 0
CPXPARAM_MIP_Cuts_Disjunctive-LiftProj-MIRCut:Disjunctive 3
CPXPARAM_MIP_Cuts_Disjunctive-LiftProj-MIRCut:LiftProj 0
CPXPARAM_MIP_Cuts_Disjunctive-LiftProj-MIRCut:MIRCut 3
24
Node Left Objective IInf Best_Integer Best_Bound ItCnt Gap
0 0 0.0000 3 0.0000 53
0 0 0.0000 2 Cuts:25 64
0 0 0 0.0000 Cuts:2 65 0.00%
0 0 cutoff 0.0000 0.0000 65 0.00% 0
CPXPARAM_MIP_Cuts_Disjunctive-LiftProj-MIRCut:Disjunctive 0
CPXPARAM_MIP_Cuts_Disjunctive-LiftProj-MIRCut:LiftProj 1
CPXPARAM_MIP_Cuts_Disjunctive-LiftProj-MIRCut:MIRCut 1
25
Node Left Objective IInf Best_Integer Best_Bound ItCnt Gap
0 0 0.0000 6 0.0000 52
0 0 0.0000 7 Disjcuts:5 63
0 0 0.0000 7 Cuts:24 76
0 2 0.0000 8 0.0000 76 0 0
CPXPARAM_MIP_Cuts_Disjunctive-LiftProj-MIRCut:Disjunctive 2
CPXPARAM_MIP_Cuts_Disjunctive-LiftProj-MIRCut:LiftProj 0
CPXPARAM_MIP_Cuts_Disjunctive-LiftProj-MIRCut:MIRCut 5
26
Node Left Objective IInf Best_Integer Best_Bound ItCnt Gap
0 0 0 0.0000 0.0000 14 0.00% 0
CPXPARAM_MIP_Cuts_Disjunctive-LiftProj-MIRCut:Disjunctive 0
CPXPARAM_MIP_Cuts_Disjunctive-LiftProj-MIRCut:LiftProj 0
CPXPARAM_MIP_Cuts_Disjunctive-LiftProj-MIRCut:MIRCut 0
27
Node Left Objective IInf Best_Integer Best_Bound ItCnt Gap
0 0 0 0.0000 0.0000 19 0.00% 0
CPXPARAM_MIP_Cuts_Disjunctive-LiftProj-MIRCut:Disjunctive 0
CPXPARAM_MIP_Cuts_Disjunctive-LiftProj-MIRCut:LiftProj 0
CPXPARAM_MIP_Cuts_Disjunctive-LiftProj-MIRCut:MIRCut 0
28
Node Left Objective IInf Best_Integer Best_Bound ItCnt Gap
0 0 0.0000 6 0.0000 62
0 0 0.0000 6 Cuts:19 73
0 0 0.0000 5 Cuts:11 84
0 2 0.0000 5 0.0000 84 0 0
CPXPARAM_MIP_Cuts_Disjunctive-LiftProj-MIRCut:Disjunctive 0
CPXPARAM_MIP_Cuts_Disjunctive-LiftProj-MIRCut:LiftProj 1
CPXPARAM_MIP_Cuts_Disjunctive-LiftProj-MIRCut:MIRCut 2
29
Node Left Objective IInf Best_Integer Best_Bound ItCnt Gap
0 0 0.0000 4 0.0000 48
0 0 0.0000 3 Disjcuts:3 103
0 0 0.0000 3 Cuts:5 108
0 2 0.0000 3 0.0000 108 0 0
CPXPARAM_MIP_Cuts_Disjunctive-LiftProj-MIRCut:Disjunctive 0
CPXPARAM_MIP_Cuts_Disjunctive-LiftProj-MIRCut:LiftProj 0
CPXPARAM_MIP_Cuts_Disjunctive-LiftProj-MIRCut:MIRCut 2
30
Node Left Objective IInf Best_Integer Best_Bound ItCnt Gap
0 0 0 0.0000 0.0000 20 0.00% 0
CPXPARAM_MIP_Cuts_Disjunctive-LiftProj-MIRCut:Disjunctive 0
CPXPARAM_MIP_Cuts_Disjunctive-LiftProj-MIRCut:LiftProj 0
CPXPARAM_MIP_Cuts_Disjunctive-LiftProj-MIRCut:MIRCut 0
31
Node Left Objective IInf Best_Integer Best_Bound ItCnt Gap
0 0 0 0.0000 0.0000 27 0.00% 0
CPXPARAM_MIP_Cuts_Disjunctive-LiftProj-MIRCut:Disjunctive 0
CPXPARAM_MIP_Cuts_Disjunctive-LiftProj-MIRCut:LiftProj 0
CPXPARAM_MIP_Cuts_Disjunctive-LiftProj-MIRCut:MIRCut 0
32
Node Left Objective IInf Best_Integer Best_Bound ItCnt Gap
0 0 0.0000 9 0.0000 59
0 0 0.0000 8 Cuts:27 72
0 0 0.0000 6 Cuts:12 86
0 0 0.0000 3 Cuts:10 100
0 0 0.0000 4 Cuts:9 108
0 0 0.0000 4 Cuts:8 117
0 2 0.0000 4 0.0000 117 0 0
CPXPARAM_MIP_Cuts_Disjunctive-LiftProj-MIRCut:Disjunctive 0
CPXPARAM_MIP_Cuts_Disjunctive-LiftProj-MIRCut:LiftProj 0
CPXPARAM_MIP_Cuts_Disjunctive-LiftProj-MIRCut:MIRCut 3
33
Node Left Objective IInf Best_Integer Best_Bound ItCnt Gap
0 0 0.0000 7 0.0000 61
0 0 0.0000 5 Disjcuts:6 76
0 0 0.0000 8 Cuts:18 92
0 0 0.0000 4 Cuts:18 100
0 0 0.0000 4 Cuts:4 106
0 2 0.0000 4 0.0000 106 0 0
CPXPARAM_MIP_Cuts_Disjunctive-LiftProj-MIRCut:Disjunctive 3
CPXPARAM_MIP_Cuts_Disjunctive-LiftProj-MIRCut:LiftProj 0
CPXPARAM_MIP_Cuts_Disjunctive-LiftProj-MIRCut:MIRCut 2
34
Node Left Objective IInf Best_Integer Best_Bound ItCnt Gap
0 0 0.0000 3 0.0000 40
0 0 0.0000 4 Disjcuts:1 73
0 0 0 0.0000 Cuts:2 75 0.00%
0 0 cutoff 0.0000 0.0000 75 0.00% 0
CPXPARAM_MIP_Cuts_Disjunctive-LiftProj-MIRCut:Disjunctive 0
CPXPARAM_MIP_Cuts_Disjunctive-LiftProj-MIRCut:LiftProj 0
CPXPARAM_MIP_Cuts_Disjunctive-LiftProj-MIRCut:MIRCut 1
35
Node Left Objective IInf Best_Integer Best_Bound ItCnt Gap
0 0 0 0.0000 0.0000 28 0.00% 0
CPXPARAM_MIP_Cuts_Disjunctive-LiftProj-MIRCut:Disjunctive 0
CPXPARAM_MIP_Cuts_Disjunctive-LiftProj-MIRCut:LiftProj 0
CPXPARAM_MIP_Cuts_Disjunctive-LiftProj-MIRCut:MIRCut 0
36
Node Left Objective IInf Best_Integer Best_Bound ItCnt Gap
0 0 0.0000 8 0.0000 61
0 0 0.0000 9 Cuts:40 77
0 0 0.0000 7 Cuts:13 98
0 0 0.0000 7 Cuts:23 113
0 2 0.0000 7 0.0000 113 0 0
CPXPARAM_MIP_Cuts_Disjunctive-LiftProj-MIRCut:Disjunctive 0
CPXPARAM_MIP_Cuts_Disjunctive-LiftProj-MIRCut:LiftProj 1
CPXPARAM_MIP_Cuts_Disjunctive-LiftProj-MIRCut:MIRCut 5
37
Node Left Objective IInf Best_Integer Best_Bound ItCnt Gap
0 0 0.0000 5 0.0000 63
0 0 0.0000 6 Disjcuts:4 71
0 0 0.0000 5 Cuts:8 79
0 2 0.0000 6 0.0000 79 0 0
CPXPARAM_MIP_Cuts_Disjunctive-LiftProj-MIRCut:Disjunctive 2
CPXPARAM_MIP_Cuts_Disjunctive-LiftProj-MIRCut:LiftProj 0
CPXPARAM_MIP_Cuts_Disjunctive-LiftProj-MIRCut:MIRCut 4
38
Node Left Objective IInf Best_Integer Best_Bound ItCnt Gap
0 0 0.0000 3 0.0000 39
0 0 0.0000 2 Cuts:4 59
0 0 0.0000 3 Disjcuts:1 65
0 2 0.0000 3 0.0000 65 0 0
CPXPARAM_MIP_Cuts_Disjunctive-LiftProj-MIRCut:Disjunctive 1
CPXPARAM_MIP_Cuts_Disjunctive-LiftProj-MIRCut:LiftProj 0
CPXPARAM_MIP_Cuts_Disjunctive-LiftProj-MIRCut:MIRCut 1
39
Node Left Objective IInf Best_Integer Best_Bound ItCnt Gap
0 0 0 0.0000 0.0000 28 0.00% 0
CPXPARAM_MIP_Cuts_Disjunctive-LiftProj-MIRCut:Disjunctive 0
CPXPARAM_MIP_Cuts_Disjunctive-LiftProj-MIRCut:LiftProj 0
CPXPARAM_MIP_Cuts_Disjunctive-LiftProj-MIRCut:MIRCut 0
